1, 14, 15, 52, 53, 22, 30, 21, 27, 28, 29, 23, 24, 32, 36, 1
1, 20, 38, 41, 43, 50, 48, 49, 40, 11, 10, 19, 1
1, 18, 2, 3, 7, 8, 13, 12, 9, 5, 6, 4, 16, 1
1, 17, 26, 31, 25, 44, 37, 47, 45, 46, 51, 42, 39, 35, 34, 33, 1
